\ LP format - for model browsing. Use MPS format to capture full model detail.
Minimize
  xk[1,1] + xk[1,2] + xk[1,3] + 2 x[1,2,1] + 2 x[1,3,1] + 5 x[1,4,1]
   + 5 x[1,5,1] + 5 x[1,6,1] + 5 x[1,7,1] + 2 x[2,1,1] + 4 x[2,3,1]
   + 6.708203932499369 x[2,4,1] + 6.708203932499369 x[2,5,1]
   + 3.605551275463989 x[2,6,1] + 3.605551275463989 x[2,7,1] + 2 x[3,1,1]
   + 4 x[3,2,1] + 3.605551275463989 x[3,4,1] + 3.605551275463989 x[3,5,1]
   + 6.708203932499369 x[3,6,1] + 6.708203932499369 x[3,7,1] + 5 x[4,1,1]
   + 6.708203932499369 x[4,2,1] + 3.605551275463989 x[4,3,1] + 6 x[4,5,1]
   + 10 x[4,6,1] + 8 x[4,7,1] + 5 x[5,1,1] + 6.708203932499369 x[5,2,1]
   + 3.605551275463989 x[5,3,1] + 6 x[5,4,1] + 8 x[5,6,1] + 10 x[5,7,1]
   + 5 x[6,1,1] + 3.605551275463989 x[6,2,1] + 6.708203932499369 x[6,3,1]
   + 10 x[6,4,1] + 8 x[6,5,1] + 6 x[6,7,1] + 5 x[7,1,1]
   + 3.605551275463989 x[7,2,1] + 6.708203932499369 x[7,3,1] + 8 x[7,4,1]
   + 10 x[7,5,1] + 6 x[7,6,1] + xk[2,1] + xk[2,2] + xk[2,3] + 2 x[1,2,2]
   + 2 x[1,3,2] + 5 x[1,4,2] + 5 x[1,5,2] + 5 x[1,6,2] + 5 x[1,7,2]
   + 2 x[2,1,2] + 4 x[2,3,2] + 6.708203932499369 x[2,4,2]
   + 6.708203932499369 x[2,5,2] + 3.605551275463989 x[2,6,2]
   + 3.605551275463989 x[2,7,2] + 2 x[3,1,2] + 4 x[3,2,2]
   + 3.605551275463989 x[3,4,2] + 3.605551275463989 x[3,5,2]
   + 6.708203932499369 x[3,6,2] + 6.708203932499369 x[3,7,2] + 5 x[4,1,2]
   + 6.708203932499369 x[4,2,2] + 3.605551275463989 x[4,3,2] + 6 x[4,5,2]
   + 10 x[4,6,2] + 8 x[4,7,2] + 5 x[5,1,2] + 6.708203932499369 x[5,2,2]
   + 3.605551275463989 x[5,3,2] + 6 x[5,4,2] + 8 x[5,6,2] + 10 x[5,7,2]
   + 5 x[6,1,2] + 3.605551275463989 x[6,2,2] + 6.708203932499369 x[6,3,2]
   + 10 x[6,4,2] + 8 x[6,5,2] + 6 x[6,7,2] + 5 x[7,1,2]
   + 3.605551275463989 x[7,2,2] + 6.708203932499369 x[7,3,2] + 8 x[7,4,2]
   + 10 x[7,5,2] + 6 x[7,6,2] + xk[3,1] + xk[3,2] + xk[3,3] + 2 x[1,2,3]
   + 2 x[1,3,3] + 5 x[1,4,3] + 5 x[1,5,3] + 5 x[1,6,3] + 5 x[1,7,3]
   + 2 x[2,1,3] + 4 x[2,3,3] + 6.708203932499369 x[2,4,3]
   + 6.708203932499369 x[2,5,3] + 3.605551275463989 x[2,6,3]
   + 3.605551275463989 x[2,7,3] + 2 x[3,1,3] + 4 x[3,2,3]
   + 3.605551275463989 x[3,4,3] + 3.605551275463989 x[3,5,3]
   + 6.708203932499369 x[3,6,3] + 6.708203932499369 x[3,7,3] + 5 x[4,1,3]
   + 6.708203932499369 x[4,2,3] + 3.605551275463989 x[4,3,3] + 6 x[4,5,3]
   + 10 x[4,6,3] + 8 x[4,7,3] + 5 x[5,1,3] + 6.708203932499369 x[5,2,3]
   + 3.605551275463989 x[5,3,3] + 6 x[5,4,3] + 8 x[5,6,3] + 10 x[5,7,3]
   + 5 x[6,1,3] + 3.605551275463989 x[6,2,3] + 6.708203932499369 x[6,3,3]
   + 10 x[6,4,3] + 8 x[6,5,3] + 6 x[6,7,3] + 5 x[7,1,3]
   + 3.605551275463989 x[7,2,3] + 6.708203932499369 x[7,3,3] + 8 x[7,4,3]
   + 10 x[7,5,3] + 6 x[7,6,3]
Subject To
 node_flow_1i1k: x[1,2,1] + x[1,3,1] + x[1,4,1] + x[1,5,1] + x[1,6,1]
   + x[1,7,1] - x[2,1,1] - x[3,1,1] - x[4,1,1] - x[5,1,1] - x[6,1,1]
   - x[7,1,1] = 0
 node_flow_1i2k: x[1,2,1] + x[1,3,1] + x[1,4,1] + x[1,5,1] + x[1,6,1]
   + x[1,7,1] - x[2,1,1] - x[3,1,1] - x[4,1,1] - x[5,1,1] - x[6,1,1]
   - x[7,1,1] + x[1,2,2] + x[1,3,2] + x[1,4,2] + x[1,5,2] + x[1,6,2]
   + x[1,7,2] - x[2,1,2] - x[3,1,2] - x[4,1,2] - x[5,1,2] - x[6,1,2]
   - x[7,1,2] = 0
 node_flow_1i3k: x[1,2,1] + x[1,3,1] + x[1,4,1] + x[1,5,1] + x[1,6,1]
   + x[1,7,1] - x[2,1,1] - x[3,1,1] - x[4,1,1] - x[5,1,1] - x[6,1,1]
   - x[7,1,1] + x[1,2,2] + x[1,3,2] + x[1,4,2] + x[1,5,2] + x[1,6,2]
   + x[1,7,2] - x[2,1,2] - x[3,1,2] - x[4,1,2] - x[5,1,2] - x[6,1,2]
   - x[7,1,2] + x[1,2,3] + x[1,3,3] + x[1,4,3] + x[1,5,3] + x[1,6,3]
   + x[1,7,3] - x[2,1,3] - x[3,1,3] - x[4,1,3] - x[5,1,3] - x[6,1,3]
   - x[7,1,3] = 0
 node_flow_2i1k: - x[1,2,1] + x[2,1,1] + x[2,3,1] + x[2,4,1] + x[2,5,1]
   + x[2,6,1] + x[2,7,1] - x[3,2,1] - x[4,2,1] - x[5,2,1] - x[6,2,1]
   - x[7,2,1] = 0
 node_flow_2i2k: - x[1,2,1] + x[2,1,1] + x[2,3,1] + x[2,4,1] + x[2,5,1]
   + x[2,6,1] + x[2,7,1] - x[3,2,1] - x[4,2,1] - x[5,2,1] - x[6,2,1]
   - x[7,2,1] - x[1,2,2] + x[2,1,2] + x[2,3,2] + x[2,4,2] + x[2,5,2]
   + x[2,6,2] + x[2,7,2] - x[3,2,2] - x[4,2,2] - x[5,2,2] - x[6,2,2]
   - x[7,2,2] = 0
 node_flow_2i3k: - x[1,2,1] + x[2,1,1] + x[2,3,1] + x[2,4,1] + x[2,5,1]
   + x[2,6,1] + x[2,7,1] - x[3,2,1] - x[4,2,1] - x[5,2,1] - x[6,2,1]
   - x[7,2,1] - x[1,2,2] + x[2,1,2] + x[2,3,2] + x[2,4,2] + x[2,5,2]
   + x[2,6,2] + x[2,7,2] - x[3,2,2] - x[4,2,2] - x[5,2,2] - x[6,2,2]
   - x[7,2,2] - x[1,2,3] + x[2,1,3] + x[2,3,3] + x[2,4,3] + x[2,5,3]
   + x[2,6,3] + x[2,7,3] - x[3,2,3] - x[4,2,3] - x[5,2,3] - x[6,2,3]
   - x[7,2,3] = 0
 node_flow_3i1k: - x[1,3,1] - x[2,3,1] + x[3,1,1] + x[3,2,1] + x[3,4,1]
   + x[3,5,1] + x[3,6,1] + x[3,7,1] - x[4,3,1] - x[5,3,1] - x[6,3,1]
   - x[7,3,1] = 0
 node_flow_3i2k: - x[1,3,1] - x[2,3,1] + x[3,1,1] + x[3,2,1] + x[3,4,1]
   + x[3,5,1] + x[3,6,1] + x[3,7,1] - x[4,3,1] - x[5,3,1] - x[6,3,1]
   - x[7,3,1] - x[1,3,2] - x[2,3,2] + x[3,1,2] + x[3,2,2] + x[3,4,2]
   + x[3,5,2] + x[3,6,2] + x[3,7,2] - x[4,3,2] - x[5,3,2] - x[6,3,2]
   - x[7,3,2] = 0
 node_flow_3i3k: - x[1,3,1] - x[2,3,1] + x[3,1,1] + x[3,2,1] + x[3,4,1]
   + x[3,5,1] + x[3,6,1] + x[3,7,1] - x[4,3,1] - x[5,3,1] - x[6,3,1]
   - x[7,3,1] - x[1,3,2] - x[2,3,2] + x[3,1,2] + x[3,2,2] + x[3,4,2]
   + x[3,5,2] + x[3,6,2] + x[3,7,2] - x[4,3,2] - x[5,3,2] - x[6,3,2]
   - x[7,3,2] - x[1,3,3] - x[2,3,3] + x[3,1,3] + x[3,2,3] + x[3,4,3]
   + x[3,5,3] + x[3,6,3] + x[3,7,3] - x[4,3,3] - x[5,3,3] - x[6,3,3]
   - x[7,3,3] = 0
 node_flow_4i1k: - x[1,4,1] - x[2,4,1] - x[3,4,1] + x[4,1,1] + x[4,2,1]
   + x[4,3,1] + x[4,5,1] + x[4,6,1] + x[4,7,1] - x[5,4,1] - x[6,4,1]
   - x[7,4,1] = 0
 node_flow_4i2k: - x[1,4,1] - x[2,4,1] - x[3,4,1] + x[4,1,1] + x[4,2,1]
   + x[4,3,1] + x[4,5,1] + x[4,6,1] + x[4,7,1] - x[5,4,1] - x[6,4,1]
   - x[7,4,1] - x[1,4,2] - x[2,4,2] - x[3,4,2] + x[4,1,2] + x[4,2,2]
   + x[4,3,2] + x[4,5,2] + x[4,6,2] + x[4,7,2] - x[5,4,2] - x[6,4,2]
   - x[7,4,2] = 0
 node_flow_4i3k: - x[1,4,1] - x[2,4,1] - x[3,4,1] + x[4,1,1] + x[4,2,1]
   + x[4,3,1] + x[4,5,1] + x[4,6,1] + x[4,7,1] - x[5,4,1] - x[6,4,1]
   - x[7,4,1] - x[1,4,2] - x[2,4,2] - x[3,4,2] + x[4,1,2] + x[4,2,2]
   + x[4,3,2] + x[4,5,2] + x[4,6,2] + x[4,7,2] - x[5,4,2] - x[6,4,2]
   - x[7,4,2] - x[1,4,3] - x[2,4,3] - x[3,4,3] + x[4,1,3] + x[4,2,3]
   + x[4,3,3] + x[4,5,3] + x[4,6,3] + x[4,7,3] - x[5,4,3] - x[6,4,3]
   - x[7,4,3] = 0
 node_out_4: x[4,1,1] + x[4,2,1] + x[4,3,1] + x[4,5,1] + x[4,6,1]
   + x[4,7,1] + x[4,1,2] + x[4,2,2] + x[4,3,2] + x[4,5,2] + x[4,6,2]
   + x[4,7,2] + x[4,1,3] + x[4,2,3] + x[4,3,3] + x[4,5,3] + x[4,6,3]
   + x[4,7,3] = 1
 node_flow_5i1k: - x[1,5,1] - x[2,5,1] - x[3,5,1] - x[4,5,1] + x[5,1,1]
   + x[5,2,1] + x[5,3,1] + x[5,4,1] + x[5,6,1] + x[5,7,1] - x[6,5,1]
   - x[7,5,1] = 0
 node_flow_5i2k: - x[1,5,1] - x[2,5,1] - x[3,5,1] - x[4,5,1] + x[5,1,1]
   + x[5,2,1] + x[5,3,1] + x[5,4,1] + x[5,6,1] + x[5,7,1] - x[6,5,1]
   - x[7,5,1] - x[1,5,2] - x[2,5,2] - x[3,5,2] - x[4,5,2] + x[5,1,2]
   + x[5,2,2] + x[5,3,2] + x[5,4,2] + x[5,6,2] + x[5,7,2] - x[6,5,2]
   - x[7,5,2] = 0
 node_flow_5i3k: - x[1,5,1] - x[2,5,1] - x[3,5,1] - x[4,5,1] + x[5,1,1]
   + x[5,2,1] + x[5,3,1] + x[5,4,1] + x[5,6,1] + x[5,7,1] - x[6,5,1]
   - x[7,5,1] - x[1,5,2] - x[2,5,2] - x[3,5,2] - x[4,5,2] + x[5,1,2]
   + x[5,2,2] + x[5,3,2] + x[5,4,2] + x[5,6,2] + x[5,7,2] - x[6,5,2]
   - x[7,5,2] - x[1,5,3] - x[2,5,3] - x[3,5,3] - x[4,5,3] + x[5,1,3]
   + x[5,2,3] + x[5,3,3] + x[5,4,3] + x[5,6,3] + x[5,7,3] - x[6,5,3]
   - x[7,5,3] = 0
 node_out_5: x[5,1,1] + x[5,2,1] + x[5,3,1] + x[5,4,1] + x[5,6,1]
   + x[5,7,1] + x[5,1,2] + x[5,2,2] + x[5,3,2] + x[5,4,2] + x[5,6,2]
   + x[5,7,2] + x[5,1,3] + x[5,2,3] + x[5,3,3] + x[5,4,3] + x[5,6,3]
   + x[5,7,3] = 1
 node_flow_6i1k: - x[1,6,1] - x[2,6,1] - x[3,6,1] - x[4,6,1] - x[5,6,1]
   + x[6,1,1] + x[6,2,1] + x[6,3,1] + x[6,4,1] + x[6,5,1] + x[6,7,1]
   - x[7,6,1] = 0
 node_flow_6i2k: - x[1,6,1] - x[2,6,1] - x[3,6,1] - x[4,6,1] - x[5,6,1]
   + x[6,1,1] + x[6,2,1] + x[6,3,1] + x[6,4,1] + x[6,5,1] + x[6,7,1]
   - x[7,6,1] - x[1,6,2] - x[2,6,2] - x[3,6,2] - x[4,6,2] - x[5,6,2]
   + x[6,1,2] + x[6,2,2] + x[6,3,2] + x[6,4,2] + x[6,5,2] + x[6,7,2]
   - x[7,6,2] = 0
 node_flow_6i3k: - x[1,6,1] - x[2,6,1] - x[3,6,1] - x[4,6,1] - x[5,6,1]
   + x[6,1,1] + x[6,2,1] + x[6,3,1] + x[6,4,1] + x[6,5,1] + x[6,7,1]
   - x[7,6,1] - x[1,6,2] - x[2,6,2] - x[3,6,2] - x[4,6,2] - x[5,6,2]
   + x[6,1,2] + x[6,2,2] + x[6,3,2] + x[6,4,2] + x[6,5,2] + x[6,7,2]
   - x[7,6,2] - x[1,6,3] - x[2,6,3] - x[3,6,3] - x[4,6,3] - x[5,6,3]
   + x[6,1,3] + x[6,2,3] + x[6,3,3] + x[6,4,3] + x[6,5,3] + x[6,7,3]
   - x[7,6,3] = 0
 node_out_6: x[6,1,1] + x[6,2,1] + x[6,3,1] + x[6,4,1] + x[6,5,1]
   + x[6,7,1] + x[6,1,2] + x[6,2,2] + x[6,3,2] + x[6,4,2] + x[6,5,2]
   + x[6,7,2] + x[6,1,3] + x[6,2,3] + x[6,3,3] + x[6,4,3] + x[6,5,3]
   + x[6,7,3] = 1
 node_flow_7i1k: - x[1,7,1] - x[2,7,1] - x[3,7,1] - x[4,7,1] - x[5,7,1]
   - x[6,7,1] + x[7,1,1] + x[7,2,1] + x[7,3,1] + x[7,4,1] + x[7,5,1]
   + x[7,6,1] = 0
 node_flow_7i2k: - x[1,7,1] - x[2,7,1] - x[3,7,1] - x[4,7,1] - x[5,7,1]
   - x[6,7,1] + x[7,1,1] + x[7,2,1] + x[7,3,1] + x[7,4,1] + x[7,5,1]
   + x[7,6,1] - x[1,7,2] - x[2,7,2] - x[3,7,2] - x[4,7,2] - x[5,7,2]
   - x[6,7,2] + x[7,1,2] + x[7,2,2] + x[7,3,2] + x[7,4,2] + x[7,5,2]
   + x[7,6,2] = 0
 node_flow_7i3k: - x[1,7,1] - x[2,7,1] - x[3,7,1] - x[4,7,1] - x[5,7,1]
   - x[6,7,1] + x[7,1,1] + x[7,2,1] + x[7,3,1] + x[7,4,1] + x[7,5,1]
   + x[7,6,1] - x[1,7,2] - x[2,7,2] - x[3,7,2] - x[4,7,2] - x[5,7,2]
   - x[6,7,2] + x[7,1,2] + x[7,2,2] + x[7,3,2] + x[7,4,2] + x[7,5,2]
   + x[7,6,2] - x[1,7,3] - x[2,7,3] - x[3,7,3] - x[4,7,3] - x[5,7,3]
   - x[6,7,3] + x[7,1,3] + x[7,2,3] + x[7,3,3] + x[7,4,3] + x[7,5,3]
   + x[7,6,3] = 0
 node_out_7: x[7,1,1] + x[7,2,1] + x[7,3,1] + x[7,4,1] + x[7,5,1]
   + x[7,6,1] + x[7,1,2] + x[7,2,2] + x[7,3,2] + x[7,4,2] + x[7,5,2]
   + x[7,6,2] + x[7,1,3] + x[7,2,3] + x[7,3,3] + x[7,4,3] + x[7,5,3]
   + x[7,6,3] = 1
 drone_payload_1: x[1,2,1] + x[1,3,1] + x[1,4,1] + x[1,5,1] + x[1,6,1]
   + x[1,7,1] + x[2,1,1] + x[2,3,1] + x[2,4,1] + x[2,5,1] + x[2,6,1]
   + x[2,7,1] + x[3,1,1] + x[3,2,1] + x[3,4,1] + x[3,5,1] + x[3,6,1]
   + x[3,7,1] + x[4,1,1] + x[4,2,1] + x[4,3,1] + x[4,5,1] + x[4,6,1]
   + x[4,7,1] + x[5,1,1] + x[5,2,1] + x[5,3,1] + x[5,4,1] + x[5,6,1]
   + x[5,7,1] + x[6,1,1] + x[6,2,1] + x[6,3,1] + x[6,4,1] + x[6,5,1]
   + x[6,7,1] + x[7,1,1] + x[7,2,1] + x[7,3,1] + x[7,4,1] + x[7,5,1]
   + x[7,6,1] <= 41
 drone_range_1: 2 x[1,2,1] + 2 x[1,3,1] + 5 x[1,4,1] + 5 x[1,5,1]
   + 5 x[1,6,1] + 5 x[1,7,1] + 2 x[2,1,1] + 4 x[2,3,1]
   + 6.708203932499369 x[2,4,1] + 6.708203932499369 x[2,5,1]
   + 3.605551275463989 x[2,6,1] + 3.605551275463989 x[2,7,1] + 2 x[3,1,1]
   + 4 x[3,2,1] + 3.605551275463989 x[3,4,1] + 3.605551275463989 x[3,5,1]
   + 6.708203932499369 x[3,6,1] + 6.708203932499369 x[3,7,1] + 5 x[4,1,1]
   + 6.708203932499369 x[4,2,1] + 3.605551275463989 x[4,3,1] + 6 x[4,5,1]
   + 10 x[4,6,1] + 8 x[4,7,1] + 5 x[5,1,1] + 6.708203932499369 x[5,2,1]
   + 3.605551275463989 x[5,3,1] + 6 x[5,4,1] + 8 x[5,6,1] + 10 x[5,7,1]
   + 5 x[6,1,1] + 3.605551275463989 x[6,2,1] + 6.708203932499369 x[6,3,1]
   + 10 x[6,4,1] + 8 x[6,5,1] + 6 x[6,7,1] + 5 x[7,1,1]
   + 3.605551275463989 x[7,2,1] + 6.708203932499369 x[7,3,1] + 8 x[7,4,1]
   + 10 x[7,5,1] + 6 x[7,6,1] <= 110
 drone_payload_2: x[1,2,2] + x[1,3,2] + x[1,4,2] + x[1,5,2] + x[1,6,2]
   + x[1,7,2] + x[2,1,2] + x[2,3,2] + x[2,4,2] + x[2,5,2] + x[2,6,2]
   + x[2,7,2] + x[3,1,2] + x[3,2,2] + x[3,4,2] + x[3,5,2] + x[3,6,2]
   + x[3,7,2] + x[4,1,2] + x[4,2,2] + x[4,3,2] + x[4,5,2] + x[4,6,2]
   + x[4,7,2] + x[5,1,2] + x[5,2,2] + x[5,3,2] + x[5,4,2] + x[5,6,2]
   + x[5,7,2] + x[6,1,2] + x[6,2,2] + x[6,3,2] + x[6,4,2] + x[6,5,2]
   + x[6,7,2] + x[7,1,2] + x[7,2,2] + x[7,3,2] + x[7,4,2] + x[7,5,2]
   + x[7,6,2] <= 41
 drone_range_2: 2 x[1,2,2] + 2 x[1,3,2] + 5 x[1,4,2] + 5 x[1,5,2]
   + 5 x[1,6,2] + 5 x[1,7,2] + 2 x[2,1,2] + 4 x[2,3,2]
   + 6.708203932499369 x[2,4,2] + 6.708203932499369 x[2,5,2]
   + 3.605551275463989 x[2,6,2] + 3.605551275463989 x[2,7,2] + 2 x[3,1,2]
   + 4 x[3,2,2] + 3.605551275463989 x[3,4,2] + 3.605551275463989 x[3,5,2]
   + 6.708203932499369 x[3,6,2] + 6.708203932499369 x[3,7,2] + 5 x[4,1,2]
   + 6.708203932499369 x[4,2,2] + 3.605551275463989 x[4,3,2] + 6 x[4,5,2]
   + 10 x[4,6,2] + 8 x[4,7,2] + 5 x[5,1,2] + 6.708203932499369 x[5,2,2]
   + 3.605551275463989 x[5,3,2] + 6 x[5,4,2] + 8 x[5,6,2] + 10 x[5,7,2]
   + 5 x[6,1,2] + 3.605551275463989 x[6,2,2] + 6.708203932499369 x[6,3,2]
   + 10 x[6,4,2] + 8 x[6,5,2] + 6 x[6,7,2] + 5 x[7,1,2]
   + 3.605551275463989 x[7,2,2] + 6.708203932499369 x[7,3,2] + 8 x[7,4,2]
   + 10 x[7,5,2] + 6 x[7,6,2] <= 110
 drone_payload_3: x[1,2,3] + x[1,3,3] + x[1,4,3] + x[1,5,3] + x[1,6,3]
   + x[1,7,3] + x[2,1,3] + x[2,3,3] + x[2,4,3] + x[2,5,3] + x[2,6,3]
   + x[2,7,3] + x[3,1,3] + x[3,2,3] + x[3,4,3] + x[3,5,3] + x[3,6,3]
   + x[3,7,3] + x[4,1,3] + x[4,2,3] + x[4,3,3] + x[4,5,3] + x[4,6,3]
   + x[4,7,3] + x[5,1,3] + x[5,2,3] + x[5,3,3] + x[5,4,3] + x[5,6,3]
   + x[5,7,3] + x[6,1,3] + x[6,2,3] + x[6,3,3] + x[6,4,3] + x[6,5,3]
   + x[6,7,3] + x[7,1,3] + x[7,2,3] + x[7,3,3] + x[7,4,3] + x[7,5,3]
   + x[7,6,3] <= 41
 drone_range_3: 2 x[1,2,3] + 2 x[1,3,3] + 5 x[1,4,3] + 5 x[1,5,3]
   + 5 x[1,6,3] + 5 x[1,7,3] + 2 x[2,1,3] + 4 x[2,3,3]
   + 6.708203932499369 x[2,4,3] + 6.708203932499369 x[2,5,3]
   + 3.605551275463989 x[2,6,3] + 3.605551275463989 x[2,7,3] + 2 x[3,1,3]
   + 4 x[3,2,3] + 3.605551275463989 x[3,4,3] + 3.605551275463989 x[3,5,3]
   + 6.708203932499369 x[3,6,3] + 6.708203932499369 x[3,7,3] + 5 x[4,1,3]
   + 6.708203932499369 x[4,2,3] + 3.605551275463989 x[4,3,3] + 6 x[4,5,3]
   + 10 x[4,6,3] + 8 x[4,7,3] + 5 x[5,1,3] + 6.708203932499369 x[5,2,3]
   + 3.605551275463989 x[5,3,3] + 6 x[5,4,3] + 8 x[5,6,3] + 10 x[5,7,3]
   + 5 x[6,1,3] + 3.605551275463989 x[6,2,3] + 6.708203932499369 x[6,3,3]
   + 10 x[6,4,3] + 8 x[6,5,3] + 6 x[6,7,3] + 5 x[7,1,3]
   + 3.605551275463989 x[7,2,3] + 6.708203932499369 x[7,3,3] + 8 x[7,4,3]
   + 10 x[7,5,3] + 6 x[7,6,3] <= 110
 drone1out_base_1: - xk[1,1] + x[1,4,1] + x[1,5,1] + x[1,6,1] + x[1,7,1]
   = 0
 drone1in_base_1: - xk[1,1] + x[4,1,1] + x[5,1,1] + x[6,1,1] + x[7,1,1]
   = 0
 drone1out_base_2: - xk[1,1] - xk[1,2] + x[1,4,1] + x[1,5,1] + x[1,6,1]
   + x[1,7,1] + x[2,4,1] + x[2,5,1] + x[2,6,1] + x[2,7,1] = 0
 drone1in_base_2: - xk[1,1] - xk[1,2] + x[4,1,1] + x[4,2,1] + x[5,1,1]
   + x[5,2,1] + x[6,1,1] + x[6,2,1] + x[7,1,1] + x[7,2,1] = 0
 drone1out_base_3: - xk[1,1] - xk[1,2] - xk[1,3] + x[1,4,1] + x[1,5,1]
   + x[1,6,1] + x[1,7,1] + x[2,4,1] + x[2,5,1] + x[2,6,1] + x[2,7,1]
   + x[3,4,1] + x[3,5,1] + x[3,6,1] + x[3,7,1] = 0
 drone1in_base_3: - xk[1,1] - xk[1,2] - xk[1,3] + x[4,1,1] + x[4,2,1]
   + x[4,3,1] + x[5,1,1] + x[5,2,1] + x[5,3,1] + x[6,1,1] + x[6,2,1]
   + x[6,3,1] + x[7,1,1] + x[7,2,1] + x[7,3,1] = 0
 drone1only_in_one_base_: xk[1,1] + xk[1,2] + xk[1,3] <= 1
 drone2out_base_1: - xk[2,1] + x[1,4,2] + x[1,5,2] + x[1,6,2] + x[1,7,2]
   = 0
 drone2in_base_1: - xk[2,1] + x[4,1,2] + x[5,1,2] + x[6,1,2] + x[7,1,2]
   = 0
 drone2out_base_2: - xk[2,1] - xk[2,2] + x[1,4,2] + x[1,5,2] + x[1,6,2]
   + x[1,7,2] + x[2,4,2] + x[2,5,2] + x[2,6,2] + x[2,7,2] = 0
 drone2in_base_2: - xk[2,1] - xk[2,2] + x[4,1,2] + x[4,2,2] + x[5,1,2]
   + x[5,2,2] + x[6,1,2] + x[6,2,2] + x[7,1,2] + x[7,2,2] = 0
 drone2out_base_3: - xk[2,1] - xk[2,2] - xk[2,3] + x[1,4,2] + x[1,5,2]
   + x[1,6,2] + x[1,7,2] + x[2,4,2] + x[2,5,2] + x[2,6,2] + x[2,7,2]
   + x[3,4,2] + x[3,5,2] + x[3,6,2] + x[3,7,2] = 0
 drone2in_base_3: - xk[2,1] - xk[2,2] - xk[2,3] + x[4,1,2] + x[4,2,2]
   + x[4,3,2] + x[5,1,2] + x[5,2,2] + x[5,3,2] + x[6,1,2] + x[6,2,2]
   + x[6,3,2] + x[7,1,2] + x[7,2,2] + x[7,3,2] = 0
 drone2only_in_one_base_: xk[2,1] + xk[2,2] + xk[2,3] <= 1
 drone3out_base_1: - xk[3,1] + x[1,4,3] + x[1,5,3] + x[1,6,3] + x[1,7,3]
   = 0
 drone3in_base_1: - xk[3,1] + x[4,1,3] + x[5,1,3] + x[6,1,3] + x[7,1,3]
   = 0
 drone3out_base_2: - xk[3,1] - xk[3,2] + x[1,4,3] + x[1,5,3] + x[1,6,3]
   + x[1,7,3] + x[2,4,3] + x[2,5,3] + x[2,6,3] + x[2,7,3] = 0
 drone3in_base_2: - xk[3,1] - xk[3,2] + x[4,1,3] + x[4,2,3] + x[5,1,3]
   + x[5,2,3] + x[6,1,3] + x[6,2,3] + x[7,1,3] + x[7,2,3] = 0
 drone3out_base_3: - xk[3,1] - xk[3,2] - xk[3,3] + x[1,4,3] + x[1,5,3]
   + x[1,6,3] + x[1,7,3] + x[2,4,3] + x[2,5,3] + x[2,6,3] + x[2,7,3]
   + x[3,4,3] + x[3,5,3] + x[3,6,3] + x[3,7,3] = 0
 drone3in_base_3: - xk[3,1] - xk[3,2] - xk[3,3] + x[4,1,3] + x[4,2,3]
   + x[4,3,3] + x[5,1,3] + x[5,2,3] + x[5,3,3] + x[6,1,3] + x[6,2,3]
   + x[6,3,3] + x[7,1,3] + x[7,2,3] + x[7,3,3] = 0
 drone3only_in_one_base_: xk[3,1] + xk[3,2] + xk[3,3] <= 1
 time_1i4j1k: 100 x[1,4,1] + s[1,1] - s[4,1] <= 92
 time_1i4j2k: 100 x[1,4,2] + s[1,2] - s[4,2] <= 92
 time_1i4j3k: 100 x[1,4,3] + s[1,3] - s[4,3] <= 92
 time_1i5j1k: 100 x[1,5,1] + s[1,1] - s[5,1] <= 92
 time_1i5j2k: 100 x[1,5,2] + s[1,2] - s[5,2] <= 92
 time_1i5j3k: 100 x[1,5,3] + s[1,3] - s[5,3] <= 92
 time_1i6j1k: 100 x[1,6,1] + s[1,1] - s[6,1] <= 92
 time_1i6j2k: 100 x[1,6,2] + s[1,2] - s[6,2] <= 92
 time_1i6j3k: 100 x[1,6,3] + s[1,3] - s[6,3] <= 92
 time_1i7j1k: 100 x[1,7,1] + s[1,1] - s[7,1] <= 92
 time_1i7j2k: 100 x[1,7,2] + s[1,2] - s[7,2] <= 92
 time_1i7j3k: 100 x[1,7,3] + s[1,3] - s[7,3] <= 92
 time_2i4j1k: 100 x[2,4,1] + s[2,1] - s[4,1] <= 90.29179606750063
 time_2i4j2k: 100 x[2,4,2] + s[2,2] - s[4,2] <= 90.29179606750063
 time_2i4j3k: 100 x[2,4,3] + s[2,3] - s[4,3] <= 90.29179606750063
 time_2i5j1k: 100 x[2,5,1] + s[2,1] - s[5,1] <= 90.29179606750063
 time_2i5j2k: 100 x[2,5,2] + s[2,2] - s[5,2] <= 90.29179606750063
 time_2i5j3k: 100 x[2,5,3] + s[2,3] - s[5,3] <= 90.29179606750063
 time_2i6j1k: 100 x[2,6,1] + s[2,1] - s[6,1] <= 93.39444872453601
 time_2i6j2k: 100 x[2,6,2] + s[2,2] - s[6,2] <= 93.39444872453601
 time_2i6j3k: 100 x[2,6,3] + s[2,3] - s[6,3] <= 93.39444872453601
 time_2i7j1k: 100 x[2,7,1] + s[2,1] - s[7,1] <= 93.39444872453601
 time_2i7j2k: 100 x[2,7,2] + s[2,2] - s[7,2] <= 93.39444872453601
 time_2i7j3k: 100 x[2,7,3] + s[2,3] - s[7,3] <= 93.39444872453601
 time_3i4j1k: 100 x[3,4,1] + s[3,1] - s[4,1] <= 93.39444872453601
 time_3i4j2k: 100 x[3,4,2] + s[3,2] - s[4,2] <= 93.39444872453601
 time_3i4j3k: 100 x[3,4,3] + s[3,3] - s[4,3] <= 93.39444872453601
 time_3i5j1k: 100 x[3,5,1] + s[3,1] - s[5,1] <= 93.39444872453601
 time_3i5j2k: 100 x[3,5,2] + s[3,2] - s[5,2] <= 93.39444872453601
 time_3i5j3k: 100 x[3,5,3] + s[3,3] - s[5,3] <= 93.39444872453601
 time_3i6j1k: 100 x[3,6,1] + s[3,1] - s[6,1] <= 90.29179606750063
 time_3i6j2k: 100 x[3,6,2] + s[3,2] - s[6,2] <= 90.29179606750063
 time_3i6j3k: 100 x[3,6,3] + s[3,3] - s[6,3] <= 90.29179606750063
 time_3i7j1k: 100 x[3,7,1] + s[3,1] - s[7,1] <= 90.29179606750063
 time_3i7j2k: 100 x[3,7,2] + s[3,2] - s[7,2] <= 90.29179606750063
 time_3i7j3k: 100 x[3,7,3] + s[3,3] - s[7,3] <= 90.29179606750063
 time_4i5j1k: 100 x[4,5,1] + s[4,1] - s[5,1] <= 91
 time_4i5j2k: 100 x[4,5,2] + s[4,2] - s[5,2] <= 91
 time_4i5j3k: 100 x[4,5,3] + s[4,3] - s[5,3] <= 91
 time_4i6j1k: 100 x[4,6,1] + s[4,1] - s[6,1] <= 87
 time_4i6j2k: 100 x[4,6,2] + s[4,2] - s[6,2] <= 87
 time_4i6j3k: 100 x[4,6,3] + s[4,3] - s[6,3] <= 87
 time_4i7j1k: 100 x[4,7,1] + s[4,1] - s[7,1] <= 89
 time_4i7j2k: 100 x[4,7,2] + s[4,2] - s[7,2] <= 89
 time_4i7j3k: 100 x[4,7,3] + s[4,3] - s[7,3] <= 89
 time_5i4j1k: 100 x[5,4,1] - s[4,1] + s[5,1] <= 91
 time_5i4j2k: 100 x[5,4,2] - s[4,2] + s[5,2] <= 91
 time_5i4j3k: 100 x[5,4,3] - s[4,3] + s[5,3] <= 91
 time_5i6j1k: 100 x[5,6,1] + s[5,1] - s[6,1] <= 89
 time_5i6j2k: 100 x[5,6,2] + s[5,2] - s[6,2] <= 89
 time_5i6j3k: 100 x[5,6,3] + s[5,3] - s[6,3] <= 89
 time_5i7j1k: 100 x[5,7,1] + s[5,1] - s[7,1] <= 87
 time_5i7j2k: 100 x[5,7,2] + s[5,2] - s[7,2] <= 87
 time_5i7j3k: 100 x[5,7,3] + s[5,3] - s[7,3] <= 87
 time_6i4j1k: 100 x[6,4,1] - s[4,1] + s[6,1] <= 87
 time_6i4j2k: 100 x[6,4,2] - s[4,2] + s[6,2] <= 87
 time_6i4j3k: 100 x[6,4,3] - s[4,3] + s[6,3] <= 87
 time_6i5j1k: 100 x[6,5,1] - s[5,1] + s[6,1] <= 89
 time_6i5j2k: 100 x[6,5,2] - s[5,2] + s[6,2] <= 89
 time_6i5j3k: 100 x[6,5,3] - s[5,3] + s[6,3] <= 89
 time_6i7j1k: 100 x[6,7,1] + s[6,1] - s[7,1] <= 91
 time_6i7j2k: 100 x[6,7,2] + s[6,2] - s[7,2] <= 91
 time_6i7j3k: 100 x[6,7,3] + s[6,3] - s[7,3] <= 91
 time_7i4j1k: 100 x[7,4,1] - s[4,1] + s[7,1] <= 89
 time_7i4j2k: 100 x[7,4,2] - s[4,2] + s[7,2] <= 89
 time_7i4j3k: 100 x[7,4,3] - s[4,3] + s[7,3] <= 89
 time_7i5j1k: 100 x[7,5,1] - s[5,1] + s[7,1] <= 87
 time_7i5j2k: 100 x[7,5,2] - s[5,2] + s[7,2] <= 87
 time_7i5j3k: 100 x[7,5,3] - s[5,3] + s[7,3] <= 87
 time_7i6j1k: 100 x[7,6,1] - s[6,1] + s[7,1] <= 91
 time_7i6j2k: 100 x[7,6,2] - s[6,2] + s[7,2] <= 91
 time_7i6j3k: 100 x[7,6,3] - s[6,3] + s[7,3] <= 91
Bounds
 s[1,1] <= 180
 s[1,2] <= 180
 s[1,3] <= 180
 s[2,1] <= 180
 s[2,2] <= 180
 s[2,3] <= 180
 s[3,1] <= 180
 s[3,2] <= 180
 s[3,3] <= 180
 s[4,1] <= 180
 s[4,2] <= 180
 s[4,3] <= 180
 s[5,1] <= 180
 s[5,2] <= 180
 s[5,3] <= 180
 s[6,1] <= 180
 s[6,2] <= 180
 s[6,3] <= 180
 s[7,1] <= 180
 s[7,2] <= 180
 s[7,3] <= 180
Binaries
 xk[1,1] xk[1,2] xk[1,3] x[1,2,1] x[1,3,1] x[1,4,1] x[1,5,1] x[1,6,1]
 x[1,7,1] x[2,1,1] x[2,3,1] x[2,4,1] x[2,5,1] x[2,6,1] x[2,7,1] x[3,1,1]
 x[3,2,1] x[3,4,1] x[3,5,1] x[3,6,1] x[3,7,1] x[4,1,1] x[4,2,1] x[4,3,1]
 x[4,5,1] x[4,6,1] x[4,7,1] x[5,1,1] x[5,2,1] x[5,3,1] x[5,4,1] x[5,6,1]
 x[5,7,1] x[6,1,1] x[6,2,1] x[6,3,1] x[6,4,1] x[6,5,1] x[6,7,1] x[7,1,1]
 x[7,2,1] x[7,3,1] x[7,4,1] x[7,5,1] x[7,6,1] xk[2,1] xk[2,2] xk[2,3]
 x[1,2,2] x[1,3,2] x[1,4,2] x[1,5,2] x[1,6,2] x[1,7,2] x[2,1,2] x[2,3,2]
 x[2,4,2] x[2,5,2] x[2,6,2] x[2,7,2] x[3,1,2] x[3,2,2] x[3,4,2] x[3,5,2]
 x[3,6,2] x[3,7,2] x[4,1,2] x[4,2,2] x[4,3,2] x[4,5,2] x[4,6,2] x[4,7,2]
 x[5,1,2] x[5,2,2] x[5,3,2] x[5,4,2] x[5,6,2] x[5,7,2] x[6,1,2] x[6,2,2]
 x[6,3,2] x[6,4,2] x[6,5,2] x[6,7,2] x[7,1,2] x[7,2,2] x[7,3,2] x[7,4,2]
 x[7,5,2] x[7,6,2] xk[3,1] xk[3,2] xk[3,3] x[1,2,3] x[1,3,3] x[1,4,3]
 x[1,5,3] x[1,6,3] x[1,7,3] x[2,1,3] x[2,3,3] x[2,4,3] x[2,5,3] x[2,6,3]
 x[2,7,3] x[3,1,3] x[3,2,3] x[3,4,3] x[3,5,3] x[3,6,3] x[3,7,3] x[4,1,3]
 x[4,2,3] x[4,3,3] x[4,5,3] x[4,6,3] x[4,7,3] x[5,1,3] x[5,2,3] x[5,3,3]
 x[5,4,3] x[5,6,3] x[5,7,3] x[6,1,3] x[6,2,3] x[6,3,3] x[6,4,3] x[6,5,3]
 x[6,7,3] x[7,1,3] x[7,2,3] x[7,3,3] x[7,4,3] x[7,5,3] x[7,6,3]
End
